54	12	4	38	
9	12	11	9

0	0	0	0	0	0	3	1	2	3
1	0	1	0	0	1	2	5	7
2	0	0	10	6	6	1	4
3	9	10	4	0	8	3	6	8	10
4	0	6	7	6	2	2	5	7
5	4	8	0	8	7	3	6	8	10
6	0	2	5	0	9	1	9
7	0	0	2	0	7	3	8	9	10
8	0	0	2	0	3	1	11
9	9	3	0	3	6	1	11
10	0	4	0	0	5	1	11
11	0	0	0	0	0	0
